
******************************************************************************
This program contains Ipopt, a library for large-scale nonlinear optimization.
 Ipopt is released as open source code under the Eclipse Public License (EPL).
         For more information visit http://projects.coin-or.org/Ipopt
******************************************************************************

This is Ipopt version 3.12.6, running with linear solver ma57.

Number of nonzeros in equality constraint Jacobian...:    13421
Number of nonzeros in inequality constraint Jacobian.:     2982
Number of nonzeros in Lagrangian Hessian.............:      357

Total number of variables............................:     1515
                     variables with only lower bounds:        0
                variables with lower and upper bounds:      595
                     variables with only upper bounds:        0
Total number of equality constraints.................:     1065
Total number of inequality constraints...............:     1286
        inequality constraints with only lower bounds:        0
   inequality constraints with lower and upper bounds:        0
        inequality constraints with only upper bounds:     1286

iter    objective    inf_pr   inf_du lg(mu)  ||d||  lg(rg) alpha_du alpha_pr  ls
   0 -5.1476950e+00 1.67e+03 1.00e+02  -1.0 0.00e+00    -  0.00e+00 0.00e+00   0
Reallocating memory for MA57: lfact (216957)
   1 -6.7940593e+02 1.67e+03 1.00e+02  -1.0 1.73e+03    -  4.59e-04 2.25e-05f  1
   2 -2.8860256e+04 1.67e+03 9.99e+01  -1.0 1.74e+03    -  5.16e-04 9.41e-04f  1
   3 -9.4633750e+04 1.66e+03 9.97e+01  -1.0 1.74e+03    -  6.37e-04 2.20e-03f  1
   4 -1.9306329e+05 1.66e+03 9.94e+01  -1.0 1.73e+03    -  2.95e-03 3.31e-03f  1
   5 -4.6994872e+05 1.64e+03 9.84e+01  -1.0 1.72e+03    -  2.98e-03 9.41e-03f  1
   6 -9.0672691e+05 1.62e+03 9.69e+01  -1.0 1.70e+03    -  1.34e-02 1.52e-02f  1
   7 -1.7114391e+06 1.57e+03 9.41e+01  -1.0 1.67e+03    -  2.32e-02 2.90e-02f  1
   8 -2.5266425e+06 1.52e+03 9.12e+01  -1.0 1.62e+03    -  8.56e-03 3.12e-02f  1
   9 -3.0190072e+06 1.49e+03 8.94e+01  -1.0 1.56e+03    -  1.37e-02 2.00e-02f  1
iter    objective    inf_pr   inf_du lg(mu)  ||d||  lg(rg) alpha_du alpha_pr  ls
  10 -3.3796822e+06 1.47e+03 8.81e+01  -1.0 1.53e+03    -  6.79e-03 1.52e-02f  1
  11 -4.0409451e+06 1.43e+03 8.55e+01  -1.0 1.51e+03    -  7.43e-03 2.90e-02f  1
  12 -4.0977277e+06 1.42e+03 8.53e+01  -1.0 1.44e+03    -  1.11e-02 2.62e-03f  1
  13 -4.3966382e+06 1.40e+03 8.41e+01  -1.0 1.44e+03    -  2.53e-03 1.39e-02f  1
  14 -4.5073611e+06 1.39e+03 8.37e+01  -1.0 1.43e+03    -  8.91e-03 5.27e-03f  1
  15 -4.6753956e+06 1.38e+03 8.30e+01  -1.0 1.37e+03    -  2.91e-03 8.17e-03f  1
  16 -4.7325314e+06 1.38e+03 8.28e+01  -1.0 1.41e+03    -  9.69e-03 2.79e-03f  1
  17 -4.9664292e+06 1.36e+03 8.18e+01  -1.0 1.35e+03    -  2.65e-03 1.17e-02f  1
  18 -5.0006071e+06 1.36e+03 8.16e+01  -1.0 1.38e+03    -  1.09e-02 1.72e-03f  1
  19 -5.3233775e+06 1.34e+03 8.03e+01  -1.0 1.33e+03    -  3.03e-03 1.66e-02f  1
iter    objective    inf_pr   inf_du lg(mu)  ||d||  lg(rg) alpha_du alpha_pr  ls
  20 -5.3491946e+06 1.34e+03 8.02e+01  -1.0 1.34e+03    -  1.24e-02 1.35e-03f  1
  21 -5.7786278e+06 1.31e+03 7.84e+01  -1.0 1.32e+03    -  3.82e-03 2.29e-02f  1
  22 -5.8005781e+06 1.30e+03 7.83e+01  -1.0 1.31e+03    -  1.44e-02 1.21e-03f  1
  23 -6.3430608e+06 1.26e+03 7.59e+01  -1.0 1.29e+03    -  4.81e-03 3.05e-02f  1
  24 -6.3634949e+06 1.26e+03 7.58e+01  -1.0 1.26e+03    -  1.69e-02 1.20e-03f  1
  25 -7.1298784e+06 1.20e+03 7.23e+01  -1.0 1.24e+03    -  8.49e-03 4.64e-02f  1
  26 -7.1825419e+06 1.20e+03 7.20e+01  -1.0 1.19e+03    -  1.52e-02 3.43e-03f  1
  27 -7.6740221e+06 1.16e+03 6.97e+01  -1.0 1.20e+03    -  1.33e-02 3.29e-02f  1
  28 -7.8929189e+06 1.14e+03 6.86e+01  -1.0 1.14e+03    -  8.12e-03 1.55e-02f  1
  29 -8.1013541e+06 1.13e+03 6.76e+01  -1.0 1.08e+03    -  1.33e-02 1.52e-02f  1
iter    objective    inf_pr   inf_du lg(mu)  ||d||  lg(rg) alpha_du alpha_pr  ls
  30 -8.1603643e+06 1.12e+03 6.73e+01  -1.0 1.06e+03    -  2.53e-02 4.41e-03f  1
  31 -8.6463066e+06 1.08e+03 6.48e+01  -1.0 1.04e+03    -  1.11e-03 3.74e-02f  1
  32 -8.7110511e+06 1.07e+03 6.44e+01  -1.0 1.00e+03    -  2.82e-02 5.27e-03f  1
  33 -8.8429721e+06 1.06e+03 6.37e+01  -1.0 9.98e+02    -  3.62e-03 1.09e-02f  1
  34 -8.9159852e+06 1.05e+03 6.33e+01  -1.0 1.06e+03    -  4.79e-02 6.08e-03f  1
  35 -9.8661775e+06 9.67e+02 5.81e+01  -1.0 1.06e+03    -  1.76e-02 8.32e-02f  1
  36 -1.0810184e+07 8.72e+02 5.23e+01  -1.0 9.75e+02    -  2.90e-02 9.88e-02f  1
  37 -1.1360175e+07 8.11e+02 4.87e+01  -1.0 8.86e+02    -  8.73e-02 6.95e-02f  1
  38 -1.1708389e+07 7.70e+02 4.63e+01  -1.0 8.31e+02    -  2.64e-02 5.02e-02f  1
  39 -1.2015220e+07 7.33e+02 4.40e+01  -1.0 7.89e+02    -  4.11e-02 4.89e-02f  1
iter    objective    inf_pr   inf_du lg(mu)  ||d||  lg(rg) alpha_du alpha_pr  ls
  40 -1.2322789e+07 6.93e+02 4.16e+01  -1.0 7.51e+02    -  6.06e-02 5.42e-02f  1
  41 -1.2676558e+07 6.44e+02 3.87e+01  -1.0 7.11e+02    -  9.17e-02 6.99e-02f  1
  42 -1.2920005e+07 6.09e+02 3.66e+01  -1.0 6.66e+02    -  1.56e-01 5.50e-02f  1
  43 -1.3505014e+07 5.15e+02 3.09e+01  -1.0 6.41e+02    -  1.03e-01 1.55e-01f  1
  44 -1.3911853e+07 4.38e+02 2.63e+01  -1.0 5.50e+02    -  4.26e-02 1.49e-01f  1
  45 -1.4271077e+07 3.58e+02 2.15e+01  -1.0 4.79e+02    -  1.29e-01 1.82e-01f  1
  46 -1.4469755e+07 3.06e+02 1.83e+01  -1.0 4.03e+02    -  7.31e-02 1.46e-01f  1
  47 -1.4660588e+07 2.46e+02 1.47e+01  -1.0 3.48e+02    -  1.55e-01 1.96e-01f  1
  48 -1.4936813e+07 1.18e+02 1.14e+01  -1.0 3.04e+02    -  1.24e-01 5.20e-01f  1
  49 -1.4994873e+07 6.96e+01 8.81e+00  -1.0 1.66e+02    -  2.81e-01 4.11e-01f  1
iter    objective    inf_pr   inf_du lg(mu)  ||d||  lg(rg) alpha_du alpha_pr  ls
  50 -1.5024141e+07 2.75e+01 1.18e+01  -1.0 1.04e+02    -  2.63e-01 6.05e-01f  1
  51 -1.5030581e+07 1.02e+01 1.46e+01  -1.0 4.64e+01    -  2.71e-01 6.29e-01f  1
  52 -1.5032253e+07 3.81e+00 1.22e+01  -1.0 2.81e+01    -  3.13e-01 6.26e-01f  1
  53 -1.5032619e+07 2.48e+00 8.25e+00  -1.0 1.88e+01    -  2.25e-01 3.48e-01f  1
  54 -1.5032982e+07 9.70e-01 1.28e+01  -1.0 1.79e+01    -  4.23e-01 6.10e-01f  1
  55 -1.5033069e+07 5.55e-01 5.78e+01  -1.0 1.07e+01    -  9.23e-01 4.27e-01f  1
  56 -1.5033126e+07 2.24e-01 1.63e+01  -1.0 9.93e+00    -  5.65e-01 5.97e-01f  1
  57 -1.5033143e+07 8.85e-02 6.46e+00  -1.0 7.23e+00    -  5.82e-01 6.05e-01h  1
  58 -1.5033147e+07 7.03e-02 7.64e+02  -1.0 8.13e+00    -  7.54e-01 2.05e-01f  2
  59 -1.5033156e+07 2.25e-02 7.90e+02  -1.0 7.84e+00    -  9.90e-01 6.80e-01h  1
iter    objective    inf_pr   inf_du lg(mu)  ||d||  lg(rg) alpha_du alpha_pr  ls
  60 -1.5033159e+07 8.14e-03 2.22e+03  -1.0 2.83e+00    -  9.90e-01 6.38e-01h  1
  61 -1.5033159e+07 4.27e-03 9.11e+03  -1.0 9.66e-01    -  1.00e+00 4.76e-01h  1
  62 -1.5033160e+07 1.25e-03 1.11e+04  -1.0 5.12e-01    -  1.00e+00 7.07e-01h  1
  63 -1.5033160e+07 6.68e-04 5.65e+04  -1.0 1.50e-01    -  1.00e+00 4.66e-01h  1
  64 -1.5033160e+07 1.70e-04 5.62e+04  -1.0 8.01e-02    -  1.00e+00 7.46e-01h  1
  65 -1.5033160e+07 8.17e-05 2.66e+05  -1.0 2.03e-02    -  1.00e+00 5.19e-01h  1
  66 -1.5033160e+07 7.72e-07 3.63e+02  -1.0 9.79e-03    -  1.00e+00 1.00e+00h  1
  67 -1.5033160e+07 1.37e-05 6.00e+04  -1.0 1.42e-04    -  1.00e+00 9.40e-01f  1
  68 -1.5033160e+07 4.95e-06 1.61e-06  -1.0 1.72e-04    -  1.00e+00 1.00e+00f  1
  69 -1.5033516e+07 8.64e-06 8.72e+04  -5.7 3.24e+00    -  8.21e-01 8.57e-01f  1
iter    objective    inf_pr   inf_du lg(mu)  ||d||  lg(rg) alpha_du alpha_pr  ls
  70 -1.5033553e+07 1.66e-05 4.94e+04  -5.7 5.63e+00    -  7.27e-01 5.19e-01f  1
Reallocating memory for MA57: lfact (231485)
  71 -1.5033571e+07 7.86e-06 5.73e+04  -5.7 4.14e+00    -  8.15e-01 5.28e-01f  1
  72 -1.5033582e+07 2.59e-06 2.41e+04  -5.7 2.67e+00    -  9.03e-01 6.70e-01f  1
  73 -1.5033585e+07 6.28e-07 4.88e+03  -5.7 1.58e+00    -  3.15e-01 7.58e-01f  1
  74 -1.5033587e+07 7.06e-08 1.18e+02  -5.7 1.09e+00    -  5.95e-01 8.88e-01f  1
Reallocating memory for MA57: lfact (249933)
  75 -1.5033587e+07 1.34e-12 5.28e+01  -5.7 3.66e-01    -  9.11e-01 1.00e+00f  1
  76 -1.5033587e+07 2.18e-12 5.87e-03  -5.7 7.54e-02    -  1.00e+00 9.92e-01f  1
  77 -1.5033587e+07 1.25e-12 7.83e-02  -5.7 1.64e-02    -  6.58e-01 1.00e+00f  1
  78 -1.5033587e+07 1.36e-12 1.84e-11  -5.7 4.61e-03    -  1.00e+00 1.00e+00f  1
  79 -1.5033587e+07 1.25e-12 4.99e+00  -8.6 7.16e-03    -  9.54e-01 8.43e-01f  1
iter    objective    inf_pr   inf_du lg(mu)  ||d||  lg(rg) alpha_du alpha_pr  ls
  80 -1.5033587e+07 7.92e-13 1.28e+00  -8.6 2.81e-03    -  6.88e-01 7.28e-01f  1
Reallocating memory for MA57: lfact (268719)
  81 -1.5033587e+07 8.52e-13 5.67e-01  -8.6 1.51e-03    -  9.64e-01 5.80e-01f  1
  82 -1.5033587e+07 6.86e-12 2.20e-02  -8.6 1.17e-03    -  8.11e-01 9.90e-01f  1
Reallocating memory for MA57: lfact (287648)
  83 -1.5033587e+07 1.48e-12 5.68e-14  -8.6 3.87e-04    -  1.00e+00 1.00e+00f  1
  84 -1.5033587e+07 1.14e-12 2.85e-03  -9.0 2.24e-04    -  8.69e-01 1.00e+00h  1
Reallocating memory for MA57: lfact (316193)
  85 -1.5033587e+07 1.07e-08 1.84e-03  -9.0 9.64e-05    -  8.15e-01 1.00e+00h  1
Reallocating memory for MA57: lfact (339054)
  86 -1.5033587e+07 7.00e-12 3.58e-14  -9.0 3.46e-05    -  1.00e+00 1.00e+00h  1

Number of Iterations....: 86

                                   (scaled)                 (unscaled)
Objective...............:  -2.0879982076593123e+06   -1.5033587095147047e+07
Dual infeasibility......:   3.5807440788880779e-14    2.5781357367994160e-13
Constraint violation....:   7.0000416042419113e-12    7.0000416042419113e-12
Complementarity.........:   1.0684519074271200e-09    7.6928537334752643e-09
Overall NLP error.......:   1.0684519074271200e-09    7.6928537334752643e-09


Number of objective function evaluations             = 88
Number of objective gradient evaluations             = 87
Number of equality constraint evaluations            = 88
Number of inequality constraint evaluations          = 88
Number of equality constraint Jacobian evaluations   = 87
Number of inequality constraint Jacobian evaluations = 87
Number of Lagrangian Hessian evaluations             = 86
Total CPU secs in IPOPT (w/o function evaluations)   =      0.943
Total CPU secs in NLP function evaluations           =      0.043

EXIT: Optimal Solution Found.
Note: The following floating-point exceptions are signalling: IEEE_OVERFLOW_FLAG IEEE_UNDERFLOW_FLAG IEEE_DENORMAL

************************ CUTEst statistics ************************


 Package used            :  IPOPT
 Problem                 :  MPC15     
 # variables             =            1530
 # constraints           =            2351
 # objective functions   =        0.1760000E+03
 # objective gradients   =        0.8800000E+02
 # objective Hessians    =        0.8700000E+02
 # Hessian-vector prdct  =        0.0000000E+00
 # constraints functions =        0.1770000E+03
 # constraints gradients =        0.8900000E+02
 # constraints Hessians  =        0.8700000E+02
 Exit code               =               0
 Final f                 =  -0.1503359E+08
 Set up time             =            0.05 seconds
 Solve time              =            1.18 seconds


******************************************************************

System Time =       0.9649999738 s.
